c This is QMaxSAT 2017 based on 14.07
c This is Glucose 3.0
c This is MiniSat 2.2.0
c WARNING: for repeatability, setting FPU to use double precision
c card = mrwto, comp = 0, pmodel = 0, narr = 5, mct = 99, verb = 0
cr firstCPXsol 0 0 0
c top = 824631
c |  Number of variables:    21218                                            |
c |  Number of clauses:      2084617                                          |
c |  Weight of hard clauses: 824631                                           |
c |  Number of soft clauses: 52430                                            |
c |  Number of unit soft clauses: 0                                           |
c |  Maximum Cardinality (by unit): 4597790      (0           )               |
c last restart ## conflicts  :  4 4433 
o 4577 | cpuTime 435.391 s
c Sum of weights = 919558
c A number of soft clauses remained = 10486
c MRWTO encoding for Pseudo-Boolean Constraints
c sizeMax=4577
c No.0 Divisor=9	generated by pow1
c No.1 Divisor=8	generated by pow1
c No.2 Divisor=9	generated by pow1
c No.3 Divisor=9	generated by pow1
c p0= 9	p1= 8	p2= 9	p3= 9	
c number of digits = 5
c linkingVar[0].size = 9, linkingVar[1].size = 8, linkingVar[2].size = 9, linkingVar[3].size = 8, linkingVar[4].size = 1, 
c Pseudo-Boolean Constraints: 233506 variables and 1663775 clauses
c Sum of weights = 919558
c A number of soft clauses remained = 10486
c MRWTO encoding for Pseudo-Boolean Constraints
c sizeMax=4577
c No.0 Divisor=9	generated by pow1
c No.1 Divisor=8	generated by pow1
c No.2 Divisor=9	generated by pow1
c No.3 Divisor=9	generated by pow1
c p0= 9	p1= 8	p2= 9	p3= 9	
c number of digits = 5
c linkingVar[0].size = 9, linkingVar[1].size = 8, linkingVar[2].size = 9, linkingVar[3].size = 8, linkingVar[4].size = 1, 
c Pseudo-Boolean Constraints: 233506 variables and 1663775 clauses
c Sum of weights = 919558
c A number of soft clauses remained = 10486
c MRWTO encoding for Pseudo-Boolean Constraints
c sizeMax=4577
c No.0 Divisor=9	generated by pow1
c No.1 Divisor=8	generated by pow1
c No.2 Divisor=9	generated by pow1
c No.3 Divisor=9	generated by pow1
c p0= 9	p1= 8	p2= 9	p3= 9	
c number of digits = 5
c linkingVar[0].size = 9, linkingVar[1].size = 8, linkingVar[2].size = 9, linkingVar[3].size = 8, linkingVar[4].size = 1, 
c Pseudo-Boolean Constraints: 233506 variables and 1663775 clauses
c Sum of weights = 919558
c A number of soft clauses remained = 10486
c MRWTO encoding for Pseudo-Boolean Constraints
c sizeMax=4577
c No.0 Divisor=9	generated by pow1
c No.1 Divisor=8	generated by pow1
c No.2 Divisor=9	generated by pow1
c No.3 Divisor=9	generated by pow1
c p0= 9	p1= 8	p2= 9	p3= 9	
c number of digits = 5
c linkingVar[0].size = 9, linkingVar[1].size = 8, linkingVar[2].size = 9, linkingVar[3].size = 8, linkingVar[4].size = 1, 
c Pseudo-Boolean Constraints: 233506 variables and 1663775 clauses
c Sum of weights = 919558
c A number of soft clauses remained = 10486
c MRWTO encoding for Pseudo-Boolean Constraints
c sizeMax=4577
c No.0 Divisor=9	generated by pow1
c No.1 Divisor=8	generated by pow1
c No.2 Divisor=9	generated by pow1
c No.3 Divisor=9	generated by pow1
c p0= 9	p1= 8	p2= 9	p3= 9	
c number of digits = 5
c linkingVar[0].size = 9, linkingVar[1].size = 8, linkingVar[2].size = 9, linkingVar[3].size = 8, linkingVar[4].size = 1, 
c Pseudo-Boolean Constraints: 233506 variables and 1663775 clauses
c last restart ## conflicts  :  1163 17373 
o 4294 | cpuTime 439.44 s
c last restart ## conflicts  :  26160 49478 
o 2311 | cpuTime 1349.47 s
c last restart ## conflicts  :  15370 9427 
o 2076 | cpuTime 1408.85 s
c last restart ## conflicts  :  1630 20703 
o 1974 | cpuTime 1893.4 s
c last restart ## conflicts  :  2729 19508 
o 1864 | cpuTime 2170.69 s
s UNKNOWN
c Search is stopped by a limit (maybe time-limit)
cr positiVarArr: [ | 66(1->62) | 117(1->10) | 241(1->31) | 367(1->54) | 424(1->8) | 522(2->3) | 661(3->39) | 813(4->88) | 845(5->17) | 935(6->4) | 1046(7->12) | 1144(8->7) | 1258(9->18) | 1344(10->1) | 1443(11->1) | 1568(12->19) | 1650(13->1) | 1761(14->6) | 1863(15->5) | 1975(16->14) | 2098(17->34) | 2191(18->24) | 2290(19->20) | 2462(20->89) | 2498(21->22) | 2590(22->11) | 2697(23->15) | 2831(24->46) | 2983(25->95) | 3073(26->82) | 3120(27->26) | 3261(28->64) | 3337(29->37) | 3426(30->23) | 3535(31->29) | 3649(32->40) | 3744(33->32) | 3851(34->36) | 3963(35->45) | 4054(36->33) | 4152(37->28) | 4279(38->52) | 4360(39->30) | 4432(40->1) | 4587(41->51) | 4680(42->41) | 4784(43->42) | 4922(44->77) | 4973(45->25) | 5095(46->44) | 5192(47->38) | 5304(48->47) | 5410(49->50) | 5484(50->21) | 5601(51->35) | 5678(52->9) | 5841(53->69) | 5902(54->27) | 6038(55->60) | 6136(56->55) | 6200(57->16) | 6344(58->57) | 6439(59->49) | 6541(60->48) | 6666(61->70) | 6767(62->68) | 6883(63->81) | 6963(64->58) | 7067(65->59) | 7176(66->65) | 7280(67->66) | 7389(68->72) | 7514(69->94) | 7594(70->71) | 7693(71->67) | 7807(72->78) | 7908(73->76) | 7948(74->13) | 8131(75->93) | 8215(76->74) | 8328(77->84) | 8408(78->61) | 8549(79->99) | 8651(80->98) | 8709(81->53) | 8844(82->85) | 8925(83->63) | 9056(84->91) | 9111(85->43) | 9258(86->87) | 9274(87->1) | 9474(88->97) | 9560(89->80) | 9662(90->79) | 9759(91->73) | 9872(92->83) | 9948(93->56) | 10070(94->75) | 10184(95->86) | 10293(96->92) | 10394(97->90) | 10503(98->96) | 10512(99->2) | ]
cr the 1-th chain: [ 1->62->68->72->78->61->70->71->67->66->65->59->49->50->21->22->11->1 ] (#non-depot=16) {#cumul.=17}
cr the 2-th chain: [ 1->10->1 ] (#non-depot=1) {#cumul.=18}
cr the 3-th chain: [ 1->31->29->37->28->64->58->57->16->14->6->4->88->97->90->79->99->2->3->39->30->23->15->5->17->34->36->33->32->40->1 ] (#non-depot=29) {#cumul.=47}
cr the 4-th chain: [ 1->54->27->26->82->85->43->42->41->51->35->45->25->95->86->87->1 ] (#non-depot=15) {#cumul.=62}
cr the 5-th chain: [ 1->8->7->12->19->20->89->80->98->96->92->83->63->81->53->69->94->75->93->56->55->60->48->47->38->52->9->18->24->46->44->77->84->91->73->76->74->13->1 ] (#non-depot=37) {#cumul.=99}
c Latest Answer = 0 by 6 loops
c restarts              : 389
c conflicts             : 10363723       (1315 /sec)
c decisions             : 45365542       (0.00 % random) (5757 /sec)
c propagations          : 32635666166    (4141514 /sec)
c conflict literals     : 6398670530     (44.45 % deleted)
c Memory used           : 2058.00 MB
c CPU time              : 7880.13 s
